verification/formal/reset_drain_cover/model/design_smt2.smt2
; SMT-LIBv2 description generated by Yosys 0.64+40 (git sha1 90b906c4f, clang++ 18.1.8 -fPIC -O3)
; yosys-smt2-module reset_drain
(declare-sort |reset_drain_s| 0)
(declare-fun |reset_drain_is| (|reset_drain_s|) Bool)
; yosys-smt2-witness {"offset": 0, "path": ["$auto$async2sync.cc:107:execute$96"], "smtname": 0, "smtoffset": 0, "type": "reg", "width": 1}
(declare-fun |reset_drain#0| (|reset_drain_s|) (_ BitVec 1)) ; $auto$async2sync.cc:107:execute$96
; yosys-smt2-register $auto$async2sync.cc:107:execute$96 1
(define-fun |reset_drain_n $auto$async2sync.cc:107:execute$96| ((state |reset_drain_s|)) Bool (= ((_ extract 0 0) (|reset_drain#0| state)) #b1))
; yosys-smt2-witness {"offset": 0, "path": ["$auto$async2sync.cc:116:execute$94"], "smtname": 1, "smtoffset": 0, "type": "reg", "width": 1}
(declare-fun |reset_drain#1| (|reset_drain_s|) (_ BitVec 1)) ; $auto$async2sync.cc:116:execute$94
; yosys-smt2-register $auto$async2sync.cc:116:execute$94 1
(define-fun |reset_drain_n $auto$async2sync.cc:116:execute$94| ((state |reset_drain_s|)) Bool (= ((_ extract 0 0) (|reset_drain#1| state)) #b1))
; yosys-smt2-anyinit reset_drain#2 2 ../../../../src/reset_drain.v:44.3-58.6
; yosys-smt2-witness {"offset": 0, "path": ["\\_witness_", "\\anyinit_procdff_57"], "smtname": 2, "smtoffset": 0, "type": "init", "width": 2}
(declare-fun |reset_drain#2| (|reset_drain_s|) (_ BitVec 2)) ; \_witness_.anyinit_procdff_57
; yosys-smt2-register _witness_.anyinit_procdff_57 2
; yosys-smt2-wire _witness_.anyinit_procdff_57 2
(define-fun |reset_drain_n _witness_.anyinit_procdff_57| ((state |reset_drain_s|)) (_ BitVec 2) (|reset_drain#2| state))
; yosys-smt2-witness {"offset": 0, "path": ["$auto$async2sync.cc:116:execute$106"], "smtname": 3, "smtoffset": 0, "type": "reg", "width": 1}
(declare-fun |reset_drain#3| (|reset_drain_s|) (_ BitVec 1)) ; $auto$async2sync.cc:116:execute$106
; yosys-smt2-register $auto$async2sync.cc:116:execute$106 1
(define-fun |reset_drain_n $auto$async2sync.cc:116:execute$106| ((state |reset_drain_s|)) Bool (= ((_ extract 0 0) (|reset_drain#3| state)) #b1))
; yosys-smt2-witness {"offset": 0, "path": ["$auto$async2sync.cc:116:execute$100"], "smtname": 4, "smtoffset": 0, "type": "reg", "width": 1}
(declare-fun |reset_drain#4| (|reset_drain_s|) (_ BitVec 1)) ; $auto$async2sync.cc:116:execute$100
; yosys-smt2-register $auto$async2sync.cc:116:execute$100 1
(define-fun |reset_drain_n $auto$async2sync.cc:116:execute$100| ((state |reset_drain_s|)) Bool (= ((_ extract 0 0) (|reset_drain#4| state)) #b1))
; yosys-smt2-anyinit reset_drain#5 2 ../../../../src/reset_drain.v:27.3-39.6
; yosys-smt2-witness {"offset": 0, "path": ["\\_witness_", "\\anyinit_procdff_67"], "smtname": 5, "smtoffset": 0, "type": "init", "width": 2}
(declare-fun |reset_drain#5| (|reset_drain_s|) (_ BitVec 2)) ; \_witness_.anyinit_procdff_67
; yosys-smt2-register _witness_.anyinit_procdff_67 2
; yosys-smt2-wire _witness_.anyinit_procdff_67 2
(define-fun |reset_drain_n _witness_.anyinit_procdff_67| ((state |reset_drain_s|)) (_ BitVec 2) (|reset_drain#5| state))
; yosys-smt2-anyinit reset_drain#6 1 ../../../../src/reset_drain.v:27.3-39.6
; yosys-smt2-witness {"offset": 0, "path": ["\\_witness_", "\\anyinit_procdff_62"], "smtname": 6, "smtoffset": 0, "type": "init", "width": 1}
(declare-fun |reset_drain#6| (|reset_drain_s|) (_ BitVec 1)) ; \_witness_.anyinit_procdff_62
; yosys-smt2-register _witness_.anyinit_procdff_62 1
; yosys-smt2-wire _witness_.anyinit_procdff_62 1
(define-fun |reset_drain_n _witness_.anyinit_procdff_62| ((state |reset_drain_s|)) Bool (= ((_ extract 0 0) (|reset_drain#6| state)) #b1))
(declare-fun |reset_drain#7| (|reset_drain_s|) Bool) ; \all_empty
; yosys-smt2-input all_empty 1
; yosys-smt2-wire all_empty 1
; yosys-smt2-witness {"offset": 0, "path": ["\\all_empty"], "smtname": "all_empty", "smtoffset": 0, "type": "input", "width": 1}
(define-fun |reset_drain_n all_empty| ((state |reset_drain_s|)) Bool (|reset_drain#7| state))
(declare-fun |reset_drain#8| (|reset_drain_s|) Bool) ; \clk
; yosys-smt2-input clk 1
; yosys-smt2-wire clk 1
; yosys-smt2-clock clk posedge
; yosys-smt2-witness {"offset": 0, "path": ["\\clk"], "smtname": "clk", "smtoffset": 0, "type": "posedge", "width": 1}
; yosys-smt2-witness {"offset": 0, "path": ["\\clk"], "smtname": "clk", "smtoffset": 0, "type": "input", "width": 1}
(define-fun |reset_drain_n clk| ((state |reset_drain_s|)) Bool (|reset_drain#8| state))
; yosys-smt2-output drain_done 1
; yosys-smt2-wire drain_done 1
(define-fun |reset_drain_n drain_done| ((state |reset_drain_s|)) Bool (|reset_drain#7| state))
(declare-fun |reset_drain#9| (|reset_drain_s|) Bool) ; \link_up
; yosys-smt2-input link_up 1
; yosys-smt2-wire link_up 1
; yosys-smt2-witness {"offset": 0, "path": ["\\link_up"], "smtname": "link_up", "smtoffset": 0, "type": "input", "width": 1}
(define-fun |reset_drain_n link_up| ((state |reset_drain_s|)) Bool (|reset_drain#9| state))
(declare-fun |reset_drain#10| (|reset_drain_s|) (_ BitVec 1)) ; \rst_n
(define-fun |reset_drain#11| ((state |reset_drain_s|)) (_ BitVec 1) (ite (= ((_ extract 0 0) (|reset_drain#10| state)) #b1) (|reset_drain#6| state) #b0)) ; \open
; yosys-smt2-output open 1
; yosys-smt2-wire open 1
(define-fun |reset_drain_n open| ((state |reset_drain_s|)) Bool (= ((_ extract 0 0) (|reset_drain#11| state)) #b1))
; yosys-smt2-input rst_n 1
; yosys-smt2-wire rst_n 1
; yosys-smt2-witness {"offset": 0, "path": ["\\rst_n"], "smtname": "rst_n", "smtoffset": 0, "type": "input", "width": 1}
(define-fun |reset_drain_n rst_n| ((state |reset_drain_s|)) Bool (= ((_ extract 0 0) (|reset_drain#10| state)) #b1))
(define-fun |reset_drain#12| ((state |reset_drain_s|)) (_ BitVec 2) (ite (= ((_ extract 0 0) (|reset_drain#10| state)) #b1) (|reset_drain#5| state) #b00)) ; \state
; yosys-smt2-wire state 2
(define-fun |reset_drain_n state| ((state |reset_drain_s|)) (_ BitVec 2) (|reset_drain#12| state))
(define-fun |reset_drain#13| ((state |reset_drain_s|)) (_ BitVec 1) (bvnot (ite (|reset_drain#8| state) #b1 #b0))) ; $auto$rtlil.cc:3255:Not$148
; yosys-smt2-assume 0 $auto$formalff.cc:987:execute$149
(define-fun |reset_drain_u 0| ((state |reset_drain_s|)) Bool (or (= ((_ extract 0 0) (|reset_drain#13| state)) #b1) (not true))) ; $auto$formalff.cc:987:execute$149
(define-fun |reset_drain#14| ((state |reset_drain_s|)) Bool (not (or  (= ((_ extract 0 0) (|reset_drain#10| state)) #b1) false))) ; $logic_not$../../../../src/reset_drain.v:42$24_Y
(define-fun |reset_drain#15| ((state |reset_drain_s|)) Bool (|reset_drain_is| state)) ; $auto$rtlil.cc:3302:And$89
; yosys-smt2-assume 1 _witness_.assume_assume_____________src_reset_drain_v_42_23 ../../../../src/reset_drain.v:42.11-42.26
(define-fun |reset_drain_u 1| ((state |reset_drain_s|)) Bool (or (|reset_drain#14| state) (not (|reset_drain#15| state)))) ; _witness_.assume_assume_____________src_reset_drain_v_42_23
; yosys-smt2-cover 0 _witness_.cover_cover_____________src_reset_drain_v_53_14 ../../../../src/reset_drain.v:53.7-53.28
(define-fun |reset_drain_c 0| ((state |reset_drain_s|)) Bool (and (= ((_ extract 0 0) (|reset_drain#1| state)) #b1) (= ((_ extract 0 0) (|reset_drain#0| state)) #b1))) ; _witness_.cover_cover_____________src_reset_drain_v_53_14
; yosys-smt2-cover 1 _witness_.cover_cover_____________src_reset_drain_v_54_16 ../../../../src/reset_drain.v:54.7-54.31
(define-fun |reset_drain_c 1| ((state |reset_drain_s|)) Bool (and (= ((_ extract 0 0) (|reset_drain#4| state)) #b1) (= ((_ extract 0 0) (|reset_drain#0| state)) #b1))) ; _witness_.cover_cover_____________src_reset_drain_v_54_16
; yosys-smt2-cover 2 _witness_.cover_cover_____________src_reset_drain_v_56_18 ../../../../src/reset_drain.v:56.7-56.57
(define-fun |reset_drain_c 2| ((state |reset_drain_s|)) Bool (and (= ((_ extract 0 0) (|reset_drain#3| state)) #b1) (= ((_ extract 0 0) (|reset_drain#0| state)) #b1))) ; _witness_.cover_cover_____________src_reset_drain_v_56_18
(define-fun |reset_drain#16| ((state |reset_drain_s|)) (_ BitVec 1) (ite (|reset_drain#9| state) (|reset_drain#11| state) #b0)) ; $procmux$50_Y
(define-fun |reset_drain#17| ((state |reset_drain_s|)) (_ BitVec 1) (ite (|reset_drain#9| state) #b1 (|reset_drain#11| state))) ; $procmux$54_Y
(define-fun |reset_drain#18| ((state |reset_drain_s|)) Bool (= (|reset_drain#12| state) #b01)) ; $eq$../../../../src/reset_drain.v:47$8_Y
(define-fun |reset_drain#19| ((state |reset_drain_s|)) Bool (not (or  (= ((_ extract 0 0) (|reset_drain#12| state)) #b1) (= ((_ extract 1 1) (|reset_drain#12| state)) #b1)))) ; $eq$../../../../src/reset_drain.v:56$19_Y
(define-fun |reset_drain#20| ((state |reset_drain_s|)) (_ BitVec 1) (ite (|reset_drain#19| state) (|reset_drain#17| state) (ite (|reset_drain#18| state) (|reset_drain#16| state) (|reset_drain#11| state)))) ; $0\open[0:0]
(define-fun |reset_drain#21| ((state |reset_drain_s|)) (_ BitVec 1) (ite (= ((_ extract 0 0) (|reset_drain#10| state)) #b1) (|reset_drain#20| state) #b0)) ; $auto$rtlil.cc:3390:Mux$142
(define-fun |reset_drain#22| ((state |reset_drain_s|)) (_ BitVec 2) (ite (|reset_drain#7| state) #b00 (|reset_drain#12| state))) ; $procmux$38_Y
(define-fun |reset_drain#23| ((state |reset_drain_s|)) (_ BitVec 2) (ite (|reset_drain#9| state) (|reset_drain#12| state) #b10)) ; $procmux$42_Y
(define-fun |reset_drain#24| ((state |reset_drain_s|)) (_ BitVec 2) (ite (|reset_drain#9| state) #b01 (|reset_drain#12| state))) ; $procmux$45_Y
(define-fun |reset_drain#25| ((state |reset_drain_s|)) Bool (= (|reset_drain#12| state) #b10)) ; $eq$../../../../src/reset_drain.v:54$17_Y
(define-fun |reset_drain#26| ((state |reset_drain_s|)) (_ BitVec 2) (ite (|reset_drain#19| state) (|reset_drain#24| state) (ite (|reset_drain#18| state) (|reset_drain#23| state) (ite (|reset_drain#25| state) (|reset_drain#22| state) #b00)))) ; $0\state[1:0]
(define-fun |reset_drain#27| ((state |reset_drain_s|)) (_ BitVec 2) (ite (= ((_ extract 0 0) (|reset_drain#10| state)) #b1) (|reset_drain#26| state) #b00)) ; $auto$rtlil.cc:3390:Mux$144
(define-fun |reset_drain#28| ((state |reset_drain_s|)) Bool (= (|reset_drain#2| state) #b10)) ; $eq$../../../../src/reset_drain.v:56$20_Y
(define-fun |reset_drain#29| ((state |reset_drain_s|)) Bool (and (or  (|reset_drain#19| state) false) (or  (|reset_drain#28| state) false))) ; $logic_and$../../../../src/reset_drain.v:56$21_Y
(define-fun |reset_drain#30| ((state |reset_drain_s|)) (_ BitVec 1) (ite (= ((_ extract 0 0) (|reset_drain#10| state)) #b1) #b1 #b0)) ; $assert$../../../../src/reset_drain.v:47$7_EN
(define-fun |reset_drain_a| ((state |reset_drain_s|)) Bool true)
(define-fun |reset_drain_u| ((state |reset_drain_s|)) Bool (and
  (|reset_drain_u 0| state)
  (|reset_drain_u 1| state)
))
(define-fun |reset_drain_i| ((state |reset_drain_s|)) Bool (and
  (= (= ((_ extract 0 0) (|reset_drain#0| state)) #b1) false) ; $auto$async2sync.cc:107:execute$96
  (= (= ((_ extract 0 0) (|reset_drain#1| state)) #b1) true) ; $auto$async2sync.cc:116:execute$94
  (= (= ((_ extract 0 0) (|reset_drain#3| state)) #b1) true) ; $auto$async2sync.cc:116:execute$106
  (= (= ((_ extract 0 0) (|reset_drain#4| state)) #b1) true) ; $auto$async2sync.cc:116:execute$100
))
(define-fun |reset_drain_h| ((state |reset_drain_s|)) Bool true)
(define-fun |reset_drain_t| ((state |reset_drain_s|) (next_state |reset_drain_s|)) Bool (and
  (= (|reset_drain#21| state) (|reset_drain#6| next_state)) ; $procdff$62 \_witness_.anyinit_procdff_62
  (= (|reset_drain#27| state) (|reset_drain#5| next_state)) ; $procdff$67 \_witness_.anyinit_procdff_67
  (= (ite (|reset_drain#25| state) #b1 #b0) (|reset_drain#4| next_state)) ; $auto$async2sync.cc:118:execute$101 $auto$async2sync.cc:116:execute$100
  (= (ite (|reset_drain#29| state) #b1 #b0) (|reset_drain#3| next_state)) ; $auto$async2sync.cc:118:execute$107 $auto$async2sync.cc:116:execute$106
  (= (|reset_drain#12| state) (|reset_drain#2| next_state)) ; $procdff$57 \_witness_.anyinit_procdff_57
  (= (ite (|reset_drain#18| state) #b1 #b0) (|reset_drain#1| next_state)) ; $auto$async2sync.cc:118:execute$95 $auto$async2sync.cc:116:execute$94
  (= (|reset_drain#30| state) (|reset_drain#0| next_state)) ; $auto$async2sync.cc:110:execute$98 $auto$async2sync.cc:107:execute$96
)) ; end of module reset_drain
; yosys-smt2-topmod reset_drain
; end of yosys output
